&CONTROL
    calculation='vc-relax'
    prefix='antimonene_B'
    restart_mode='from_scratch'
    outdir='./outdir'
    pseudo_dir='/home/latifah/quantumEspresso_2019/pslibrary.1.0.0'


    forc_conv_thr=1.0d-4
    etot_conv_thr=1.0d-6
/
&SYSTEM
    ibrav = 4, a = 4.12, b = 4.12, c= 30, cosab=-0.500000,
    nat = 2, ntyp = 1,
    ecutwfc = 47.0 ,
    ecutrho = 246.0 ,
    occupations = 'smearing', degauss = 0.0001, smearing = 'marzari-vanderbilt'
/
&ELECTRONS
    conv_thr = 1.0d-8,
    mixing_beta = 0.3,
/
&IONS
    ion_dynamics='bfgs'
/
&CELL
    press_conv_thr = 0.5D0
    cell_dynamics = bfgs,
    cell_dofree = '2Dxy'
/
ATOMIC_SPECIES
Sb 121.760 Sb.pbe-dn-kjpaw_psl.1.0.0.UPF
ATOMIC_POSITIONS crystal
Sb 0.333333333 0.666666667 0.000000000
Sb 0.666666667 0.333333333 0.055000000
K_POINTS automatic
4 4 1 0 0 0
